#######################



#######################
Set parameter TimeLimit to value 500
Set parameter SoftMemLimit to value 125
Set parameter LogFile to value 1202-MIPFocus0-Presolve2-TimeLimit500-k16x240-6.log
Set parameter Presolve to value 2
Set parameter Seed to value 16
Using license file /opt/gurobi/gurobi.lic

Gurobi Optimizer version 12.0.2 build v12.0.2rc0 (linux64 - "Ubuntu 22.04.4 LTS")
Copyright (c) 2025, Gurobi Optimization, LLC

Read MPS format model from file /miplib2010/k16x240.mps.bz2
Reading time = 0.00 seconds
k16x240: 256 rows, 480 columns, 960 nonzeros

Using Gurobi shared library /nfs/shared/static-builds/gurobi1202

CPU model: Intel(R) Xeon(R) E-2388G CPU @ 3.20GHz, instruction set [SSE2|AVX|AVX2|AVX512]
Thread count: 8 physical cores, 16 logical processors, using up to 16 threads

Non-default parameters:
TimeLimit  500
SoftMemLimit  125
Presolve  2
Seed  16

Optimize a model with 256 rows, 480 columns and 960 nonzeros
Model fingerprint: 0x4e80885f
Variable types: 240 continuous, 240 integer (240 binary)
Coefficient statistics:
  Matrix range     [1e+00, 1e+03]
  Objective range  [1e+00, 1e+03]
  Bounds range     [1e+00, 1e+03]
  RHS range        [4e+00, 4e+02]
Found heuristic solution: objective 20319.000000
Presolve time: 0.00s
Presolved: 256 rows, 480 columns, 960 nonzeros
Variable types: 240 continuous, 240 integer (240 binary)
Root relaxation presolve removed 241 rows and 240 columns
Root relaxation presolved: 15 rows, 240 columns, 450 nonzeros


Root relaxation: objective 2.769838e+03, 16 iterations, 0.00 seconds (0.00 work units)

    Nodes    |    Current Node    |     Objective Bounds      |     Work
 Expl Unexpl |  Obj  Depth IntInf | Incumbent    BestBd   Gap | It/Node Time

     0     0 2769.83800    0   14 20319.0000 2769.83800  86.4%     -    0s
H    0     0                    11359.000000 2769.83800  75.6%     -    0s
H    0     0                    11259.000000 2769.83800  75.4%     -    0s
H    0     0                    11204.000000 2769.83800  75.3%     -    0s
     0     0 8062.79125    0   26 11204.0000 8062.79125  28.0%     -    0s
H    0     0                    11079.000000 8179.10853  26.2%     -    0s
H    0     0                    11077.000000 8179.10853  26.2%     -    0s
     0     0 8179.10853    0   25 11077.0000 8179.10853  26.2%     -    0s
     0     0 8179.10853    0   26 11077.0000 8179.10853  26.2%     -    0s
     0     0 8528.16906    0   24 11077.0000 8528.16906  23.0%     -    0s
H    0     0                    11036.000000 8539.52379  22.6%     -    0s
     0     0 8539.52379    0   32 11036.0000 8539.52379  22.6%     -    0s
     0     0 8548.03675    0   29 11036.0000 8548.03675  22.5%     -    0s
     0     0 8708.61573    0   34 11036.0000 8708.61573  21.1%     -    0s
H    0     0                    10983.000000 8708.76662  20.7%     -    0s
H    0     0                    10877.000000 8708.76662  19.9%     -    0s
H    0     0                    10823.000000 8708.76662  19.5%     -    0s
     0     0 8759.07726    0   27 10823.0000 8759.07726  19.1%     -    0s
     0     0 8759.26237    0   29 10823.0000 8759.26237  19.1%     -    0s
     0     0 8849.58182    0   30 10823.0000 8849.58182  18.2%     -    0s
     0     0 8869.71947    0   33 10823.0000 8869.71947  18.0%     -    0s
     0     0 8875.58933    0   35 10823.0000 8875.58933  18.0%     -    0s
     0     0 8997.94507    0   38 10823.0000 8997.94507  16.9%     -    0s
     0     0 9014.80755    0   33 10823.0000 9014.80755  16.7%     -    0s
     0     0 9018.31610    0   34 10823.0000 9018.31610  16.7%     -    0s
     0     0 9088.19407    0   45 10823.0000 9088.19407  16.0%     -    0s
     0     0 9094.49979    0   38 10823.0000 9094.49979  16.0%     -    0s
     0     0 9115.00365    0   42 10823.0000 9115.00365  15.8%     -    0s
     0     0 9115.03353    0   42 10823.0000 9115.03353  15.8%     -    0s
H    0     0                    10792.000000 9115.03353  15.5%     -    0s
H    0     0                    10739.000000 9115.03353  15.1%     -    0s
     0     2 9115.03353    0   42 10739.0000 9115.03353  15.1%     -    0s
H   30    62                    10717.000000 9145.68888  14.7%  50.3    0s
H   35    62                    10681.000000 9145.68888  14.4%  48.8    0s
H   50    62                    10678.000000 9145.68888  14.4%  47.3    0s
H  668   678                    10674.000000 9295.95778  12.9%  19.6    0s
 31969 11763 10214.2695   25   19 10674.0000 10014.6646  6.18%  24.8    5s
 69632 17549 10533.3646   29   20 10674.0000 10202.0360  4.42%  26.0   10s
 105867 16181     cutoff   38      10674.0000 10341.1016  3.12%  26.6   15s

Cutting planes:
  Lift-and-project: 18
  Cover: 69
  Implied bound: 19
  Dual implied bound: 36
  MIR: 180
  Flow cover: 302
  Flow path: 48
  Inf proof: 2
  Zero half: 4
  Network: 58
  Relax-and-lift: 1

Explored 147999 nodes (3825861 simplex iterations) in 19.77 seconds (27.90 work units)
Thread count was 16 (of 16 available processors)

Solution count 10: 10674 10678 10681 ... 11036

Optimal solution found (tolerance 1.00e-04)
Best objective 1.067400000000e+04, best bound 1.067400000000e+04, gap 0.0000%
